429 21
490 461
214 159
156 457
156 485
69 282
491 194
37 168
267 437
462 372
364 108
53 19
298 152
203 181
236 367
209 418
443 206
268 336
239 292
30 196
418 103
351 451
327 118
170 377
200 350
261 90
163 167
293 136
289 51
403 453
123 428
131 138
184 371
218 452
332 98
373 443
195 382
101 384
15 113
344 45
97 490
222 494
259 105
275 495
485 295
481 54
129 188
258 351
39 426